(set-logic SLHV)
(declare-hvar emp IntHeap)
(declare-locvar nil IntLoc)
(declare-datatype pt_record_0 ((Pt_R_0 (loc IntLoc))))
(declare-datatype pt_record_1 ((Pt_R_1 (data Int))))
(declare-const invalidFree_5 Bool)
(declare-const loc_5 Int)
(declare-const $r_main0_4 Int)
(declare-const $r_main0_5 Int)
(declare-const $i8_main0_4 Int)
(declare-const $i8_main0_5 Int)
(declare-const $i2_main0_4 Int)
(declare-const $i2_main0_5 Int)
(declare-const $i10_main0_4 Int)
(declare-const $i10_main0_5 Int)
(declare-locvar $p9_main0_4 IntLoc)
(declare-locvar $p9_main0_5 IntLoc)
(declare-locvar $p7_main0_4 IntLoc)
(declare-locvar $p7_main0_5 IntLoc)
(declare-locvar $p6_main0_4 IntLoc)
(declare-locvar $p6_main0_5 IntLoc)
(declare-locvar $p5_main0_4 IntLoc)
(declare-locvar $p5_main0_5 IntLoc)
(declare-locvar $p4_main0_4 IntLoc)
(declare-locvar $p4_main0_5 IntLoc)
(declare-locvar $p3_main0_4 IntLoc)
(declare-locvar $p3_main0_5 IntLoc)
(declare-locvar $p1_main0_4 IntLoc)
(declare-locvar $p1_main0_5 IntLoc)
(declare-locvar $p13_main0_4 IntLoc)
(declare-locvar $p13_main0_5 IntLoc)
(declare-locvar $p12_main0_4 IntLoc)
(declare-locvar $p12_main0_5 IntLoc)
(declare-locvar $p11_main0_4 IntLoc)
(declare-locvar $p11_main0_5 IntLoc)
(declare-locvar $p0_main0_4 IntLoc)
(declare-locvar $p0_main0_5 IntLoc)
(declare-const invalidFree3_5 Bool)
(declare-hvar H6_5 IntHeap)
(declare-hvar H_5 IntHeap)
(declare-hvar AH5_5 IntHeap)
(declare-hvar AH_5 IntHeap)
(declare-locvar $p15_main01_5 IntLoc)
(declare-locvar $p15_main0_5 IntLoc)
(declare-locvar $p14_main01_5 IntLoc)
(declare-locvar $p14_main0_5 IntLoc)
(declare-locvar $M.04_5 IntLoc)
(declare-locvar $M.0_5 IntLoc)
(declare-const invalidFree_4 Bool)
(declare-hvar h7_5 IntHeap)
(declare-locvar l12_5 IntLoc)
(declare-const d13_5 Int)
(declare-hvar H_4 IntHeap)
(declare-const d11_5 Int)
(declare-locvar l11_5 IntLoc)
(declare-const d12_5 Int)
(declare-hvar ah5 IntHeap)
(declare-hvar AH_4 IntHeap)
(declare-const d14_5 Int)
(declare-hvar ah6_5 IntHeap)
(declare-locvar $M.0_4 IntLoc)
(declare-const loc_4 Int)
(declare-locvar $p15_main0_4 IntLoc)
(declare-locvar $p14_main0_4 IntLoc)
(declare-const invalidFree_3 Bool)
(declare-hvar H_3 IntHeap)
(declare-hvar AH_3 IntHeap)
(declare-const $r_main0_3 Int)
(declare-const $i8_main0_3 Int)
(declare-const $i2_main0_3 Int)
(declare-const $i10_main0_3 Int)
(declare-locvar $p9_main0_3 IntLoc)
(declare-locvar $p7_main0_3 IntLoc)
(declare-locvar $p6_main0_3 IntLoc)
(declare-locvar $p5_main0_3 IntLoc)
(declare-locvar $p4_main0_3 IntLoc)
(declare-locvar $p3_main0_3 IntLoc)
(declare-locvar $p1_main0_3 IntLoc)
(declare-locvar $p15_main0_3 IntLoc)
(declare-locvar $p14_main0_3 IntLoc)
(declare-locvar $p13_main0_3 IntLoc)
(declare-locvar $p12_main0_3 IntLoc)
(declare-locvar $p11_main0_3 IntLoc)
(declare-locvar $p0_main0_3 IntLoc)
(declare-locvar $M.0_3 IntLoc)
(declare-const loc_3 Int)
(declare-const invalidFree2_4 Bool)
(declare-hvar H5_4 IntHeap)
(declare-hvar AH4_4 IntHeap)
(declare-locvar $p13_main01_4 IntLoc)
(declare-locvar $p12_main01_4 IntLoc)
(declare-locvar $p11_main01_4 IntLoc)
(declare-hvar h6_4 IntHeap)
(declare-locvar l10_4 IntLoc)
(declare-const d9_4 Int)
(declare-const d7_4 Int)
(declare-locvar l9_4 IntLoc)
(declare-const d8_4 Int)
(declare-hvar ah3 IntHeap)
(declare-const d10_4 Int)
(declare-hvar ah4_4 IntHeap)
(declare-locvar l7_4 IntLoc)
(declare-hvar h4_4 IntHeap)
(declare-const $r_main01_4 Int)
(declare-const invalidFree_2 Bool)
(declare-hvar H_2 IntHeap)
(declare-hvar AH_2 IntHeap)
(declare-const $r_main0_2 Int)
(declare-const $i8_main0_2 Int)
(declare-const $i2_main0_2 Int)
(declare-const $i10_main0_2 Int)
(declare-locvar $p9_main0_2 IntLoc)
(declare-locvar $p7_main0_2 IntLoc)
(declare-locvar $p6_main0_2 IntLoc)
(declare-locvar $p5_main0_2 IntLoc)
(declare-locvar $p4_main0_2 IntLoc)
(declare-locvar $p3_main0_2 IntLoc)
(declare-locvar $p1_main0_2 IntLoc)
(declare-locvar $p15_main0_2 IntLoc)
(declare-locvar $p14_main0_2 IntLoc)
(declare-locvar $p13_main0_2 IntLoc)
(declare-locvar $p12_main0_2 IntLoc)
(declare-locvar $p11_main0_2 IntLoc)
(declare-locvar $p0_main0_2 IntLoc)
(declare-locvar $M.0_2 IntLoc)
(declare-const loc_2 Int)
(declare-locvar $p9_main01_3 IntLoc)
(declare-const $i10_main01_3 Int)
(declare-const $r_main01_3 Int)
(declare-const invalidFree_1 Bool)
(declare-const $r_main0_1 Int)
(declare-const $i8_main0_1 Int)
(declare-const $i2_main0_1 Int)
(declare-const $i10_main0_1 Int)
(declare-locvar $p9_main0_1 IntLoc)
(declare-locvar $p4_main0_1 IntLoc)
(declare-locvar $p3_main0_1 IntLoc)
(declare-locvar $p1_main0_1 IntLoc)
(declare-locvar $p15_main0_1 IntLoc)
(declare-locvar $p14_main0_1 IntLoc)
(declare-locvar $p13_main0_1 IntLoc)
(declare-locvar $p12_main0_1 IntLoc)
(declare-locvar $p11_main0_1 IntLoc)
(declare-locvar $p0_main0_1 IntLoc)
(declare-locvar $M.0_1 IntLoc)
(declare-hvar H4_2 IntHeap)
(declare-hvar AH3_2 IntHeap)
(declare-locvar $p7_main01_2 IntLoc)
(declare-locvar $p6_main01_2 IntLoc)
(declare-locvar $p5_main01_2 IntLoc)
(declare-hvar h2_2 IntHeap)
(declare-locvar l5_2 IntLoc)
(declare-hvar H3_2 IntHeap)
(declare-locvar l4_2 IntLoc)
(declare-hvar AH_1 IntHeap)
(declare-const d6_2 Int)
(declare-hvar H_1 IntHeap)
(declare-const loc_1 Int)
(declare-locvar $p7_main0_1 IntLoc)
(declare-locvar $p6_main0_1 IntLoc)
(declare-locvar $p5_main0_1 IntLoc)
(declare-const invalidFree1_2 Bool)
(declare-hvar H2_2 IntHeap)
(declare-hvar AH2_2 IntHeap)
(declare-locvar $p4_main01_2 IntLoc)
(declare-locvar $p3_main01_2 IntLoc)
(declare-locvar $M.03_2 IntLoc)
(declare-hvar h1_2 IntHeap)
(declare-locvar l3_2 IntLoc)
(declare-const d4_2 Int)
(declare-const d2_2 Int)
(declare-locvar l2_2 IntLoc)
(declare-const d3_2 Int)
(declare-hvar ah1 IntHeap)
(declare-const d5_2 Int)
(declare-hvar ah2_2 IntHeap)
(declare-const invalidFree_0 Bool)
(declare-const $r_main0_0 Int)
(declare-const $i8_main0_0 Int)
(declare-const $i2_main0_0 Int)
(declare-const $i10_main0_0 Int)
(declare-locvar $p9_main0_0 IntLoc)
(declare-locvar $p7_main0_0 IntLoc)
(declare-locvar $p6_main0_0 IntLoc)
(declare-locvar $p5_main0_0 IntLoc)
(declare-locvar $p4_main0_0 IntLoc)
(declare-locvar $p3_main0_0 IntLoc)
(declare-locvar $p15_main0_0 IntLoc)
(declare-locvar $p14_main0_0 IntLoc)
(declare-locvar $p13_main0_0 IntLoc)
(declare-locvar $p12_main0_0 IntLoc)
(declare-locvar $p11_main0_0 IntLoc)
(declare-hvar H1_1 IntHeap)
(declare-hvar AH1_1 IntHeap)
(declare-locvar $p1_main01_1 IntLoc)
(declare-locvar $p0_main01_1 IntLoc)
(declare-locvar $M.02_1 IntLoc)
(declare-locvar l1_1 IntLoc)
(declare-hvar AH_0 IntHeap)
(declare-const d1_1 Int)
(declare-hvar H_0 IntHeap)
(declare-locvar $M.01_1 IntLoc)
(declare-const loc_0 Int)
(assert
 (let (($x1180 (= loc_5 3)))
 (let (($x1090 (= $r_main0_5 $r_main0_4)))
 (let (($x1087 (= $i8_main0_5 $i8_main0_4)))
 (let (($x1084 (= $i2_main0_5 $i2_main0_4)))
 (let (($x1091 (and (and (and (and true (= $i10_main0_5 $i10_main0_4)) $x1084) $x1087) $x1090)))
 (let (($x1077 (= $p9_main0_5 $p9_main0_4)))
 (let (($x1074 (= $p7_main0_5 $p7_main0_4)))
 (let (($x1071 (= $p6_main0_5 $p6_main0_4)))
 (let (($x1068 (= $p5_main0_5 $p5_main0_4)))
 (let (($x1065 (= $p4_main0_5 $p4_main0_4)))
 (let (($x1062 (= $p3_main0_5 $p3_main0_4)))
 (let (($x1059 (= $p1_main0_5 $p1_main0_4)))
 (let (($x1050 (= $p13_main0_5 $p13_main0_4)))
 (let (($x1047 (= $p12_main0_5 $p12_main0_4)))
 (let (($x1044 (= $p11_main0_5 $p11_main0_4)))
 (let (($x1169 (and (and (and (and true (= $p0_main0_5 $p0_main0_4)) $x1044) $x1047) $x1050)))
 (let (($x1175 (and (and (and (and (and (and $x1169 $x1059) $x1062) $x1065) $x1068) $x1071) $x1074)))
 (let (($x1176 (and $x1175 $x1077)))
 (let (($x1365 (= invalidFree_5 invalidFree3_5)))
 (let (($x1162 (= H_5 H6_5)))
 (let (($x1160 (= AH_5 AH5_5)))
 (let (($x1158 (= $p15_main0_5 $p15_main01_5)))
 (let (($x1159 (and (and (= $M.0_5 $M.04_5) (= $p14_main0_5 $p14_main01_5)) $x1158)))
 (let (($x1163 (and (and $x1159 $x1160) $x1162)))
 (let (($x1118 (= $M.04_5 nil)))
 (let (($x1347 (or $x1118 invalidFree3_5)))
 (let (($x1348 (= invalidFree3_5 invalidFree_4)))
 (let (($x1349 (and invalidFree_4 $x1348)))
 (let (($x1120 (= H6_5 h7_5)))
 (let (($x1121 (= $p15_main01_5 l12_5)))
 (let (($x1125 (= H_4 (uplus h7_5 (pt l12_5 (Pt_R_1 d13_5))))))
 (let (($x1128 (= d11_5 1)))
 (let (($x1130 (= $p15_main01_5 l11_5)))
 (let (($x1134 (= H_4 (uplus h7_5 (pt l11_5 (Pt_R_1 d12_5))))))
 (let (($x1137 (= d11_5 2)))
 (let (($x1139 (and (=> $x1137 (and (and $x1134 $x1130) $x1120)) (=> $x1128 (and (and $x1125 $x1121) $x1120)))))
 (let (($x1140 (= AH5_5 ah5)))
 (let (($x1144 (= AH_4 (uplus ah5 (pt $p15_main01_5 (Pt_R_1 d11_5))))))
 (let (($x1146 (and (and $x1144 $x1140) $x1139)))
 (let (($x1356 (or (= $p15_main01_5 nil) (= ah6_5 (uplus AH_4 (pt $p15_main01_5 (Pt_R_1 d14_5)))))))
 (let (($x1357 (and $x1356 invalidFree3_5)))
 (let (($x1148 (= $p15_main01_5 $p14_main01_5)))
 (let (($x1360 (or $x1148 invalidFree_4)))
 (let (($x1150 (= $p14_main01_5 $M.0_4)))
 (let (($x1361 (or $x1150 invalidFree_4)))
 (let (($x1364 (and (and (and $x1361 $x1360) (or (or $x1357 (and $x1146 $x1348)) $x1349)) $x1347)))
 (let (($x1025 (= loc_4 7)))
 (let (($x1371 (=> $x1025 (and (and (and (and $x1364 (and $x1163 $x1365)) $x1176) $x1091) $x1180))))
 (let (($x1104 (= loc_5 5)))
 (let (($x1340 (= invalidFree_5 invalidFree_4)))
 (let (($x1097 (= H_5 H_4)))
 (let (($x1098 (and (and true (= AH_5 AH_4)) $x1097)))
 (let (($x1056 (= $p15_main0_5 $p15_main0_4)))
 (let (($x1053 (= $p14_main0_5 $p14_main0_4)))
 (let (($x1041 (= $p0_main0_5 $p0_main0_4)))
 (let (($x1051 (and (and (and (and (and true (= $M.0_5 $M.0_4)) $x1041) $x1044) $x1047) $x1050)))
 (let (($x1069 (and (and (and (and (and (and $x1051 $x1053) $x1056) $x1059) $x1062) $x1065) $x1068)))
 (let (($x1078 (and (and (and $x1069 $x1071) $x1074) $x1077)))
 (let (($x1337 (and (and (and (or true invalidFree_4) (and true true)) $x1078) $x1091)))
 (let (($x916 (= loc_4 5)))
 (let (($x1288 (= invalidFree_4 invalidFree_3)))
 (let (($x909 (= H_4 H_3)))
 (let (($x910 (and (and true (= AH_4 AH_3)) $x909)))
 (let (($x922 (= $r_main0_4 $r_main0_3)))
 (let (($x902 (= $i8_main0_4 $i8_main0_3)))
 (let (($x899 (= $i2_main0_4 $i2_main0_3)))
 (let (($x903 (and (and (and true (= $i10_main0_4 $i10_main0_3)) $x899) $x902)))
 (let (($x923 (and $x903 $x922)))
 (let (($x892 (= $p9_main0_4 $p9_main0_3)))
 (let (($x889 (= $p7_main0_4 $p7_main0_3)))
 (let (($x886 (= $p6_main0_4 $p6_main0_3)))
 (let (($x883 (= $p5_main0_4 $p5_main0_3)))
 (let (($x880 (= $p4_main0_4 $p4_main0_3)))
 (let (($x877 (= $p3_main0_4 $p3_main0_3)))
 (let (($x874 (= $p1_main0_4 $p1_main0_3)))
 (let (($x871 (= $p15_main0_4 $p15_main0_3)))
 (let (($x868 (= $p14_main0_4 $p14_main0_3)))
 (let (($x865 (= $p13_main0_4 $p13_main0_3)))
 (let (($x862 (= $p12_main0_4 $p12_main0_3)))
 (let (($x859 (= $p11_main0_4 $p11_main0_3)))
 (let (($x856 (= $p0_main0_4 $p0_main0_3)))
 (let (($x857 (and (and true (= $M.0_4 $M.0_3)) $x856)))
 (let (($x875 (and (and (and (and (and (and $x857 $x859) $x862) $x865) $x868) $x871) $x874)))
 (let (($x893 (and (and (and (and (and (and $x875 $x877) $x880) $x883) $x886) $x889) $x892)))
 (let (($x1295 (and (and (and (or true invalidFree_3) (and true true)) $x893) $x923)))
 (let (($x1297 (and (and $x1295 $x910) $x1288)))
 (let (($x826 (= loc_3 6)))
 (let (($x1030 (and $x826 (not (= $i10_main0_3 1)))))
 (let (($x1018 (and (and (and (and (and (and $x857 $x868) $x871) $x874) $x877) $x880) $x883)))
 (let (($x1021 (and (and (and $x1018 $x886) $x889) $x892)))
 (let (($x1322 (= invalidFree_4 invalidFree2_4)))
 (let (($x1008 (= H_4 H5_4)))
 (let (($x1006 (= AH_4 AH4_4)))
 (let (($x1004 (= $p13_main0_4 $p13_main01_4)))
 (let (($x1002 (= $p12_main0_4 $p12_main01_4)))
 (let (($x1001 (= $p11_main0_4 $p11_main01_4)))
 (let (($x1009 (and (and (and (and $x1001 $x1002) $x1004) $x1006) $x1008)))
 (let (($x1304 (= invalidFree2_4 invalidFree_3)))
 (let (($x1305 (and invalidFree_3 $x1304)))
 (let (($x948 (= H5_4 h6_4)))
 (let (($x949 (= $p13_main01_4 l10_4)))
 (let (($x953 (= H_3 (uplus h6_4 (pt l10_4 (Pt_R_1 d9_4))))))
 (let (($x956 (= d7_4 1)))
 (let (($x958 (= $p13_main01_4 l9_4)))
 (let (($x962 (= H_3 (uplus h6_4 (pt l9_4 (Pt_R_1 d8_4))))))
 (let (($x965 (= d7_4 2)))
 (let (($x967 (and (=> $x965 (and (and $x962 $x958) $x948)) (=> $x956 (and (and $x953 $x949) $x948)))))
 (let (($x968 (= AH4_4 ah3)))
 (let (($x972 (= AH_3 (uplus ah3 (pt $p13_main01_4 (Pt_R_1 d7_4))))))
 (let (($x974 (and (and $x972 $x968) $x967)))
 (let (($x1312 (or (= $p13_main01_4 nil) (= ah4_4 (uplus AH_3 (pt $p13_main01_4 (Pt_R_1 d10_4)))))))
 (let (($x1313 (and $x1312 invalidFree2_4)))
 (let (($x976 (= $p13_main01_4 $p12_main01_4)))
 (let (($x1316 (or $x976 invalidFree_3)))
 (let (($x985 (and (= H_3 (uplus h4_4 (pt $p11_main01_4 (Pt_R_0 l7_4)))) (= $p12_main01_4 l7_4))))
 (let (($x1317 (or $x985 invalidFree_3)))
 (let (($x996 (= $p11_main01_4 $M.0_3)))
 (let (($x1318 (or $x996 invalidFree_3)))
 (let (($x1321 (and (and (and $x1318 $x1317) $x1316) (or (or $x1313 (and $x974 $x1304)) $x1305))))
 (let (($x946 (= $i10_main0_3 1)))
 (let (($x947 (and $x826 $x946)))
 (let (($x1328 (=> $x947 (and (and (and (and $x1321 (and $x1009 $x1322)) $x1021) $x923) $x1025))))
 (let (($x849 (= $r_main0_4 $r_main01_4)))
 (let (($x850 (and $x849 true)))
 (let (($x846 (= $r_main01_4 0)))
 (let (($x1282 (or $x846 invalidFree_3)))
 (let (($x1290 (and (and (and (and (and (and $x1282 $x850) $x893) $x903) $x910) $x1288) $x916)))
 (let (($x840 (= loc_3 3)))
 (let (($x1329 (and (and (=> $x840 $x1290) (=> (= loc_3 5) (and $x1297 $x916))) $x1328)))
 (let (($x1257 (= invalidFree_3 invalidFree_2)))
 (let (($x786 (= H_3 H_2)))
 (let (($x787 (and (and true (= AH_3 AH_2)) $x786)))
 (let (($x820 (= $r_main0_3 $r_main0_2)))
 (let (($x779 (= $i8_main0_3 $i8_main0_2)))
 (let (($x776 (= $i2_main0_3 $i2_main0_2)))
 (let (($x780 (and (and (and true (= $i10_main0_3 $i10_main0_2)) $x776) $x779)))
 (let (($x836 (and $x780 $x820)))
 (let (($x769 (= $p9_main0_3 $p9_main0_2)))
 (let (($x766 (= $p7_main0_3 $p7_main0_2)))
 (let (($x763 (= $p6_main0_3 $p6_main0_2)))
 (let (($x760 (= $p5_main0_3 $p5_main0_2)))
 (let (($x757 (= $p4_main0_3 $p4_main0_2)))
 (let (($x754 (= $p3_main0_3 $p3_main0_2)))
 (let (($x751 (= $p1_main0_3 $p1_main0_2)))
 (let (($x748 (= $p15_main0_3 $p15_main0_2)))
 (let (($x745 (= $p14_main0_3 $p14_main0_2)))
 (let (($x742 (= $p13_main0_3 $p13_main0_2)))
 (let (($x739 (= $p12_main0_3 $p12_main0_2)))
 (let (($x736 (= $p11_main0_3 $p11_main0_2)))
 (let (($x733 (= $p0_main0_3 $p0_main0_2)))
 (let (($x743 (and (and (and (and (and true (= $M.0_3 $M.0_2)) $x733) $x736) $x739) $x742)))
 (let (($x761 (and (and (and (and (and (and $x743 $x745) $x748) $x751) $x754) $x757) $x760)))
 (let (($x767 (and (and $x761 $x763) $x766)))
 (let (($x770 (and $x767 $x769)))
 (let (($x1275 (and (and (and (or true invalidFree_2) (and true true)) $x770) $x836)))
 (let (($x717 (= loc_2 4)))
 (let (($x831 (and $x717 (not (= $i8_main0_2 1)))))
 (let (($x821 (and (and (and true $x776) $x779) $x820)))
 (let (($x813 (= $p9_main0_3 $p9_main01_3)))
 (let (($x812 (= $i10_main0_3 $i10_main01_3)))
 (let (($x814 (and $x812 $x813)))
 (let (($x815 (and $x814 true)))
 (let (($x807 (or (and (and (distinct $p9_main01_3 nil) true) (= $i10_main01_3 1)) (and (not (and (distinct $p9_main01_3 nil) true)) (= $i10_main01_3 0)))))
 (let (($x809 (= $p9_main01_3 $M.0_2)))
 (let (($x1262 (or $x809 invalidFree_2)))
 (let (($x1267 (and (and (and (and (and $x1262 (or $x807 invalidFree_2)) $x815) $x767) $x821) $x787)))
 (let (($x799 (= $i8_main0_2 1)))
 (let (($x800 (and $x717 $x799)))
 (let (($x794 (= loc_3 5)))
 (let (($x726 (= $r_main0_3 $r_main01_3)))
 (let (($x727 (and $x726 true)))
 (let (($x723 (= $r_main01_3 0)))
 (let (($x1251 (or $x723 invalidFree_2)))
 (let (($x1259 (and (and (and (and (and (and $x1251 $x727) $x770) $x780) $x787) $x1257) $x794)))
 (let (($x632 (= loc_2 3)))
 (let (($x1280 (and (and (=> $x632 $x1259) (=> $x800 (and (and $x1267 $x1257) $x826))) (=> $x831 (and (and (and $x1275 $x787) $x1257) $x840)))))
 (let (($x1245 (= invalidFree_2 invalidFree_1)))
 (let (($x624 (= $r_main0_2 $r_main0_1)))
 (let (($x621 (= $i8_main0_2 $i8_main0_1)))
 (let (($x618 (= $i2_main0_2 $i2_main0_1)))
 (let (($x625 (and (and (and (and true (= $i10_main0_2 $i10_main0_1)) $x618) $x621) $x624)))
 (let (($x611 (= $p9_main0_2 $p9_main0_1)))
 (let (($x711 (= $p4_main0_2 $p4_main0_1)))
 (let (($x709 (= $p3_main0_2 $p3_main0_1)))
 (let (($x599 (= $p1_main0_2 $p1_main0_1)))
 (let (($x596 (= $p15_main0_2 $p15_main0_1)))
 (let (($x593 (= $p14_main0_2 $p14_main0_1)))
 (let (($x590 (= $p13_main0_2 $p13_main0_1)))
 (let (($x587 (= $p12_main0_2 $p12_main0_1)))
 (let (($x584 (= $p11_main0_2 $p11_main0_1)))
 (let (($x581 (= $p0_main0_2 $p0_main0_1)))
 (let (($x705 (and (and (and (and (and true (= $M.0_2 $M.0_1)) $x581) $x584) $x587) $x590)))
 (let (($x713 (and (and (and (and (and (and $x705 $x593) $x596) $x599) $x709) $x711) $x611)))
 (let (($x695 (= H_2 H4_2)))
 (let (($x693 (= AH_2 AH3_2)))
 (let (($x691 (= $p7_main0_2 $p7_main01_2)))
 (let (($x692 (and (and (= $p5_main0_2 $p5_main01_2) (= $p6_main0_2 $p6_main01_2)) $x691)))
 (let (($x696 (and (and $x692 $x693) $x695)))
 (let (($x1241 (and $x696 true)))
 (let (($x659 (and (= H3_2 (uplus h2_2 (pt $p7_main01_2 (Pt_R_0 l5_2)))) (= H4_2 (uplus h2_2 (pt $p7_main01_2 (Pt_R_0 $p5_main01_2)))))))
 (let (($x1234 (or $x659 invalidFree_1)))
 (let (($x670 (= $p7_main01_2 $M.0_1)))
 (let (($x1235 (or $x670 invalidFree_1)))
 (let (($x672 (= $p6_main01_2 $p5_main01_2)))
 (let (($x1236 (or $x672 invalidFree_1)))
 (let (($x676 (= AH3_2 (uplus AH_1 (pt l4_2 (Pt_R_1 2))))))
 (let (($x677 (= $p5_main01_2 l4_2)))
 (let (($x681 (= H3_2 (uplus H_1 (pt l4_2 (Pt_R_1 d6_2))))))
 (let (($x683 (and (and $x681 $x677) $x676)))
 (let (($x1243 (and (and (and (and (and (or $x683 invalidFree_1) $x1236) $x1235) $x1234) $x1241) $x713)))
 (let (($x510 (= loc_1 2)))
 (let (($x648 (and $x510 (not (= $i2_main0_1 1)))))
 (let (($x608 (= $p7_main0_2 $p7_main0_1)))
 (let (($x605 (= $p6_main0_2 $p6_main0_1)))
 (let (($x602 (= $p5_main0_2 $p5_main0_1)))
 (let (($x597 (and (and (and (and (and (and true $x581) $x584) $x587) $x590) $x593) $x596)))
 (let (($x612 (and (and (and (and (and $x597 $x599) $x602) $x605) $x608) $x611)))
 (let (($x1227 (= invalidFree_2 invalidFree1_2)))
 (let (($x576 (= H_2 H2_2)))
 (let (($x573 (= AH_2 AH2_2)))
 (let (($x570 (= $p4_main0_2 $p4_main01_2)))
 (let (($x571 (and (and (= $M.0_2 $M.03_2) (= $p3_main0_2 $p3_main01_2)) $x570)))
 (let (($x577 (and (and $x571 $x573) $x576)))
 (let (($x527 (= $M.03_2 nil)))
 (let (($x1208 (or $x527 invalidFree1_2)))
 (let (($x1209 (= invalidFree1_2 invalidFree_1)))
 (let (($x1210 (and invalidFree_1 $x1209)))
 (let (($x529 (= H2_2 h1_2)))
 (let (($x530 (= $p4_main01_2 l3_2)))
 (let (($x534 (= H_1 (uplus h1_2 (pt l3_2 (Pt_R_1 d4_2))))))
 (let (($x537 (= d2_2 1)))
 (let (($x539 (= $p4_main01_2 l2_2)))
 (let (($x543 (= H_1 (uplus h1_2 (pt l2_2 (Pt_R_1 d3_2))))))
 (let (($x546 (= d2_2 2)))
 (let (($x548 (and (=> $x546 (and (and $x543 $x539) $x529)) (=> $x537 (and (and $x534 $x530) $x529)))))
 (let (($x549 (= AH2_2 ah1)))
 (let (($x553 (= AH_1 (uplus ah1 (pt $p4_main01_2 (Pt_R_1 d2_2))))))
 (let (($x555 (and (and $x553 $x549) $x548)))
 (let (($x1217 (or (= $p4_main01_2 nil) (= ah2_2 (uplus AH_1 (pt $p4_main01_2 (Pt_R_1 d5_2)))))))
 (let (($x1218 (and $x1217 invalidFree1_2)))
 (let (($x557 (= $p4_main01_2 $p3_main01_2)))
 (let (($x1221 (or $x557 invalidFree_1)))
 (let (($x559 (= $p3_main01_2 $M.0_1)))
 (let (($x1222 (or $x559 invalidFree_1)))
 (let (($x1225 (and (and (and $x1222 $x1221) (or (or $x1218 (and $x555 $x1209)) $x1210)) $x1208)))
 (let (($x525 (= $i2_main0_1 1)))
 (let (($x526 (and $x510 $x525)))
 (let (($x1233 (=> $x526 (and (and (and (and $x1225 (and $x577 $x1227)) $x612) $x625) $x632))))
 (let (($x1200 (= invalidFree_1 invalidFree_0)))
 (let (($x503 (= $r_main0_1 $r_main0_0)))
 (let (($x499 (= $i8_main0_1 $i8_main0_0)))
 (let (($x495 (= $i2_main0_1 $i2_main0_0)))
 (let (($x504 (and (and (and (and true (= $i10_main0_1 $i10_main0_0)) $x495) $x499) $x503)))
 (let (($x486 (= $p9_main0_1 $p9_main0_0)))
 (let (($x482 (= $p7_main0_1 $p7_main0_0)))
 (let (($x478 (= $p6_main0_1 $p6_main0_0)))
 (let (($x474 (= $p5_main0_1 $p5_main0_0)))
 (let (($x470 (= $p4_main0_1 $p4_main0_0)))
 (let (($x466 (= $p3_main0_1 $p3_main0_0)))
 (let (($x462 (= $p15_main0_1 $p15_main0_0)))
 (let (($x458 (= $p14_main0_1 $p14_main0_0)))
 (let (($x454 (= $p13_main0_1 $p13_main0_0)))
 (let (($x450 (= $p12_main0_1 $p12_main0_0)))
 (let (($x459 (and (and (and (and true (= $p11_main0_1 $p11_main0_0)) $x450) $x454) $x458)))
 (let (($x483 (and (and (and (and (and (and $x459 $x462) $x466) $x470) $x474) $x478) $x482)))
 (let (($x487 (and $x483 $x486)))
 (let (($x440 (= H_1 H1_1)))
 (let (($x437 (= AH_1 AH1_1)))
 (let (($x434 (= $p1_main0_1 $p1_main01_1)))
 (let (($x435 (and (and (= $M.0_1 $M.02_1) (= $p0_main0_1 $p0_main01_1)) $x434)))
 (let (($x442 (and (and (and $x435 $x437) $x440) true)))
 (let (($x408 (= $M.02_1 $p0_main01_1)))
 (let (($x1189 (or $x408 invalidFree_0)))
 (let (($x410 (= $p1_main01_1 $p0_main01_1)))
 (let (($x1190 (or $x410 invalidFree_0)))
 (let (($x414 (= AH1_1 (uplus AH_0 (pt l1_1 (Pt_R_1 1))))))
 (let (($x415 (= $p0_main01_1 l1_1)))
 (let (($x419 (= H1_1 (uplus H_0 (pt l1_1 (Pt_R_1 d1_1))))))
 (let (($x421 (and (and $x419 $x415) $x414)))
 (let (($x423 (= $M.01_1 nil)))
 (let (($x1192 (or $x423 invalidFree_0)))
 (let (($x1197 (and (and (and (and (and $x1192 (or $x421 invalidFree_0)) $x1190) $x1189) $x442) $x487)))
 (let (($x394 (= loc_0 1)))
 (let (($x1187 (not invalidFree_0)))
 (let (($x396 (and (and (= H_0 emp) (= AH_0 emp)) $x394)))
 (let (($x1204 (and (and $x396 $x1187) (=> $x394 (and (and (and $x1197 $x504) $x1200) $x510)))))
 (let (($x1250 (and $x1204 (and $x1233 (=> $x648 (and (and (and $x1243 $x625) $x1245) $x717))))))
 (let (($x1373 (and (and (and $x1250 $x1280) (and $x1329 (=> $x1030 (and $x1297 $x1025)))) (and (=> $x916 (and (and (and $x1337 $x1098) $x1340) $x1104)) $x1371))))
 (and $x1373 invalidFree_5))))))))))))))))))))))))))))))))))))))))))))))))))))))))))))))))))))))))))))))))))))))))))))))))))))))))))))))))))))))))))))))))))))))))))))))))))))))))))))))))))))))))))))))))))))))))))))))))))))))))))))))))))))))))))))))))))))))))))))))))))))))))))))))))))))))))))))))))))))))))))))))))))
(check-sat)
